(declare-const delta_k Int)
(declare-const delta_j Int)
(assert (exists
         ((|j'?1| Int) (|S1,0?2| Real) (|k'?3| Int) (KSUM1?4 Int)
            (|K1,0?5| Int) (K?6 Int) (|k'?7| Int) (nk?8 Int) (k?9 Int)
            (nj?10 Int) (j?11 Int))
         (and (<= (- j?11) 0) (< (+ (- nj?10) j?11) 0) (<= (- K?6) 0)
                (<= (- |K1,0?5|) 0) (= (+ |K1,0?5| (- K?6)) 0)
                (<= (+ KSUM1?4 (- K?6)) 0)
                (= (+ (- |S1,0?2|) |k'?3| (- |K1,0?5|)) 0)
                (= (+ (- KSUM1?4) |K1,0?5|) 0) (= |S1,0?2| 0)
                (or (and (= K?6 0) (= (- |k'?3|) 0))
                      (and (<= (+ (- K?6) 1) 0) (<= (+ (- nk?8) 1) 0)
                             (<= (+ (- nk?8) |k'?3|) 0)
                             (<= (+ (- |k'?3|) 1) 0)))
                (= (+ |k'?3| (- K?6)) 0) (<= (- K?6) 0) (<= (- |k'?3|) 0)
                (<= (+ nk?8 (- |k'?3|)) 0) (= (+ |k'?7| (- |k'?3|)) 0)
                (= (+ |j'?1| (- j?11) -1) 0) (= delta_j (+ |j'?1| (- j?11)))
                (= delta_k (+ |k'?7| (- k?9))))))
(check-sat)
